1208125
10,88,90,103,57,53,101,99,52,16,79,47,20,12,92,95,86,61,18,72,75,49,17,6,87,64,59,41,107,77,32,105,54,11,35,27,7,39,67,104,98,70,46,96,21,63,14,22,78,66,3,91,73,55,102,29,5,60,84,42,94,31,43,19,62,2,82,24,15,106,93,45,80,1,50,83,58,28,51,33,44,81,0,100,97,34,4,89,23,108,9,65,76,8,36,25,40,37,71,56,74,85,26,68,69,13,38,30,48,